Mo1 S2
1.0
   3.1378129001501058    0.0000000000000000    0.0000000000000000
  -1.5689064500750529    2.7174256838525159    0.0000000000000000
   0.0000000000000000    0.0000000000000000   10.0000000000000000
Mo S
1 2
direct
   0.0000000000000000    0.0000000000000000    0.5000000000000000 Mo
   0.3333333333333333    0.6666666666666666    0.3437800543038064 S
   0.3333333333333333    0.6666666666666667    0.6562199456961937 S
