Mo1 S2                                  
    1.000000000000000     
     3.1383145598091051    0.0000000000000000    0.0000000000000000
    -1.5691572799045526    2.7178601338428674    0.0000000000000000
     0.0000000000000000    0.0000000000000000   20.0000000000000000
   Mo   S 
     1     2
Direct
  0.0000000000000000 -0.0000000000000000  0.5000000000000000
  0.3333333332999970  0.6666666667000030  0.4219004509104763
  0.3333333332999970  0.6666666667000030  0.5780995490895237
 
  0.00000000E+00  0.00000000E+00  0.00000000E+00
  0.00000000E+00  0.00000000E+00  0.00000000E+00
  0.00000000E+00  0.00000000E+00  0.00000000E+00
